
        $ From http://www.csplib.org/Problems/prob009/data/helmut.pdf
        $ Problem number 156
        $ Sequence length : 25
        language ESSENCE' 1.0
        letting sizemaster be 528
        letting sizes be sequence(2,9,15,17,27,29,31,32,33,36,47,49,50,60,62,69,77,123,127,128,132,141,150,255,273)
        